33D32945 STP File, STP Format Version 1.0

SECTION Comments
Name "carioca_3_11_02"
Creator "Marcia Fampa, Jon Lee & Wendel Melo"
Problem "Euclidean Steiner Tree Problem"
Remark "Converted automatically"
END

SECTION Graph
Nodes 11
END

SECTION Coordinates
DDD 1 0.02216086000000 0.84849653000000 0.97672872000000 
DDD 2 0.14479359000000 0.66863417000000 0.83408996000000 
DDD 3 0.69225347000000 0.96252294000000 0.01700969000000 
DDD 4 0.90434374000000 0.66992902000000 0.58361323000000 
DDD 5 0.35805594000000 0.19204660000000 0.13246306000000 
DDD 6 0.46621117000000 0.06576288000000 0.54713809000000 
DDD 7 0.38768878000000 0.25109177000000 0.34902089000000 
DDD 8 0.18974043000000 0.46415052000000 0.36161826000000 
DDD 9 0.46054007000000 0.59921749000000 0.01885033000000 
DDD 10 0.49106659000000 0.21106401000000 0.87440743000000 
DDD 11 0.82853953000000 0.91785728000000 0.59886080000000 
END

EOF
